p wcnf 145 290 291 
1 46 32 0 
1 -88 141 0 
1 -92 -103 0 
1 119 77 0 
1 95 25 0 
1 101 138 0 
1 12 -1 0 
1 115 73 0 
1 45 10 0 
1 116 103 0 
1 57 -119 0 
1 -89 57 0 
1 88 -48 0 
1 17 111 0 
1 -65 -47 0 
1 -79 144 0 
1 54 62 0 
1 133 -127 0 
1 -57 -8 0 
1 103 33 0 
1 133 -123 0 
1 -134 -37 0 
1 -88 86 0 
1 -74 -103 0 
1 -97 -115 0 
1 124 -4 0 
1 -112 -45 0 
1 54 7 0 
1 48 -117 0 
1 51 -72 0 
1 -25 70 0 
1 144 56 0 
1 64 87 0 
1 70 -3 0 
1 -91 -144 0 
1 -65 129 0 
1 -62 -36 0 
1 92 -4 0 
1 144 -93 0 
1 125 -29 0 
1 79 -64 0 
1 -106 -10 0 
1 16 139 0 
1 101 -109 0 
1 90 -82 0 
1 -24 -89 0 
1 -59 -18 0 
1 -80 36 0 
1 141 4 0 
1 104 43 0 
1 135 68 0 
1 -24 90 0 
1 -48 -69 0 
1 64 -100 0 
1 -93 143 0 
1 129 81 0 
1 -121 116 0 
1 -80 -7 0 
1 -9 -69 0 
1 4 -53 0 
1 74 -136 0 
1 -23 9 0 
1 -44 136 0 
1 -105 -9 0 
1 140 34 0 
1 82 119 0 
1 -52 84 0 
1 102 -39 0 
1 -64 -14 0 
1 -49 -113 0 
1 -38 107 0 
1 -73 -141 0 
1 -102 -55 0 
1 11 -120 0 
1 -41 9 0 
1 -131 -59 0 
1 -81 26 0 
1 16 -134 0 
1 48 -26 0 
1 137 -20 0 
1 -26 39 0 
1 81 -126 0 
1 60 87 0 
1 -40 42 0 
1 91 134 0 
1 -12 133 0 
1 -20 -38 0 
1 3 -130 0 
1 -52 -13 0 
1 -95 126 0 
1 -40 -17 0 
1 142 -19 0 
1 56 85 0 
1 -131 144 0 
1 17 -39 0 
1 -84 35 0 
1 -24 48 0 
1 -73 20 0 
1 -36 13 0 
1 81 -114 0 
1 62 -117 0 
1 -125 123 0 
1 -71 -7 0 
1 98 67 0 
1 10 -105 0 
1 63 -84 0 
1 -126 37 0 
1 -9 60 0 
1 -32 -28 0 
1 127 -132 0 
1 124 70 0 
1 -111 107 0 
1 -57 -38 0 
1 49 111 0 
1 49 -41 0 
1 -14 68 0 
1 -77 131 0 
1 94 -43 0 
1 130 24 0 
1 -126 35 0 
1 -76 43 0 
1 -82 -1 0 
1 97 -102 0 
1 143 94 0 
1 -71 -145 0 
1 67 -10 0 
1 -93 144 0 
1 57 103 0 
1 113 -67 0 
1 -123 20 0 
1 45 -103 0 
1 103 143 0 
1 50 -28 0 
1 94 107 0 
1 -57 -92 0 
1 79 -127 0 
1 -59 -141 0 
1 27 -102 0 
1 -93 47 0 
1 137 95 0 
1 -99 -91 0 
1 -91 7 0 
1 -1 123 0 
1 -23 -57 0 
1 94 -126 0 
1 127 33 0 
1 -58 -136 0 
1 -67 121 0 
1 137 -128 0 
1 -90 112 0 
1 -115 -114 0 
1 45 65 0 
1 -51 11 0 
1 -12 -8 0 
1 50 86 0 
1 70 46 0 
1 18 -64 0 
1 58 131 0 
1 112 13 0 
1 122 -79 0 
1 43 -130 0 
1 60 105 0 
1 -43 -31 0 
1 -140 -81 0 
1 86 63 0 
1 -117 -57 0 
1 -65 40 0 
1 59 141 0 
1 97 69 0 
1 -129 73 0 
1 138 4 0 
1 -39 16 0 
1 65 -98 0 
1 -128 123 0 
1 -144 -20 0 
1 50 -2 0 
1 16 3 0 
1 10 140 0 
1 -17 127 0 
1 2 -63 0 
1 -91 -141 0 
1 123 126 0 
1 112 -65 0 
1 -94 57 0 
1 -105 -115 0 
1 -121 -102 0 
1 10 104 0 
1 -132 -67 0 
1 -11 59 0 
1 -127 144 0 
1 137 43 0 
1 -57 -127 0 
1 -32 10 0 
1 -72 -15 0 
1 140 -126 0 
1 45 127 0 
1 -51 100 0 
1 -139 -135 0 
1 107 -27 0 
1 119 -36 0 
1 -68 -14 0 
1 47 -26 0 
1 -115 59 0 
1 89 -68 0 
1 -102 26 0 
1 -82 -64 0 
1 -7 -140 0 
1 -36 -125 0 
1 -137 -19 0 
1 19 -76 0 
1 100 -91 0 
1 -21 105 0 
1 -117 -124 0 
1 -131 27 0 
1 85 17 0 
1 -11 13 0 
1 -15 -134 0 
1 133 -90 0 
1 -67 -48 0 
1 -93 115 0 
1 37 -91 0 
1 -56 101 0 
1 102 65 0 
1 -69 26 0 
1 19 -29 0 
1 43 -57 0 
1 108 62 0 
1 -124 132 0 
1 -119 80 0 
1 -29 111 0 
1 -100 135 0 
1 -50 141 0 
1 144 87 0 
1 -53 45 0 
1 133 84 0 
1 -20 98 0 
1 9 3 0 
1 125 34 0 
1 64 103 0 
1 58 -91 0 
1 -82 43 0 
1 -92 112 0 
1 136 -75 0 
1 14 43 0 
1 114 -122 0 
1 13 114 0 
1 129 -4 0 
1 -93 52 0 
1 75 137 0 
1 77 76 0 
1 38 36 0 
1 -78 -40 0 
1 -75 112 0 
1 -109 -108 0 
1 -94 31 0 
1 -92 -17 0 
1 -49 101 0 
1 -86 -81 0 
1 -20 -31 0 
1 -106 -82 0 
1 -23 124 0 
1 -56 -76 0 
1 -124 -135 0 
1 125 -27 0 
1 -68 92 0 
1 136 80 0 
1 139 53 0 
1 -55 -26 0 
1 -109 -97 0 
1 87 -99 0 
1 44 -41 0 
1 -127 70 0 
1 -125 -121 0 
1 -51 -93 0 
1 -10 -127 0 
1 -35 -96 0 
1 -114 106 0 
1 67 21 0 
1 -37 143 0 
1 -139 22 0 
1 132 -26 0 
1 109 9 0 
1 106 7 0 
1 119 131 0 
1 -137 -111 0 
1 -115 -134 0 
1 -72 -64 0 
1 48 15 0 
1 121 -35 0 
1 118 62 0 
